StudentsNr = 15;
InstructorsNr = 10;
DaysNr = 2;
SlotsPerDay = 10;
AvailabilitySlotsLenght = 2;
RoomNr = 2;
ProgrammNr = 2;
DegreeNr = 1;
RolesNr = 2;
CoursesNr = 3;
InstructorsProgramm = [{2}, {1, 2}, {2}, {2}, {2}, {1}, {2}, {2}, {1}, {1}];
InstructorRolesPerProgramm = [|{9, 10}, {10}|{3, 4}, {3, 4, 5, 7, 8}|];
InstructorsAvailability = [|0, 0, 0, 1, 1, 1, 1, 1, 1, 1, |0, 1, 1, 1, 1, 1, 1, 1, 1, 1, |0, 0, 1, 1, 1, 1, 1, 1, 1, 1, |0, 1, 1, 0, 0, 1, 1, 1, 1, 1, |0, 1, 1, 1, 1, 0, 0, 1, 1, 0, |0, 1, 1, 1, 1, 1, 1, 1, 1, 1, |1, 1, 1, 0, 1, 1, 1, 1, 1, 1, |1, 1, 1, 1, 1, 1, 1, 1, 1, 1, |0, 1, 1, 0, 0, 0, 1, 1, 1, 1, |1, 0, 1, 0, 0, 0, 0, 1, 1, 0|];
StudentsProgramm = [2, 1, 1, 1, 2, 2, 1, 2, 2, 1, 1, 2, 1, 1, 1];
StudentsDegree = [1, 1, 1, 1, 1, 1, 1, 1, 1, 1, 1, 1, 1, 1, 1];
StudentsSupervisorId = [8, 10, 2, 9, 1, 5, 2, 7, 4, 2, 6, 3, 9, 6, 9];
StudentsCourseIds = [{1}, {3}, {3}, {2}, {1}, {3}, {2}, {1}, {2}, {1}, {2}, {1}, {3}, {1}, {3}];
StudentsAvailability = [|0, 1, 1, 0, 1, 1, 1, 1, 0, 0, |0, 1, 0, 0, 0, 1, 1, 1, 1, 1, |0, 0, 1, 1, 1, 1, 1, 1, 1, 1, |0, 1, 1, 0, 1, 1, 1, 1, 1, 1, |0, 0, 0, 0, 1, 1, 1, 1, 1, 1, |0, 0, 0, 1, 1, 1, 1, 1, 1, 1, |1, 1, 1, 1, 1, 1, 1, 1, 1, 1, |1, 0, 0, 0, 1, 1, 1, 1, 1, 1, |0, 0, 1, 1, 1, 1, 1, 1, 0, 0, |0, 1, 1, 1, 1, 1, 1, 0, 1, 1, |1, 1, 1, 0, 0, 1, 1, 1, 1, 1, |0, 0, 0, 0, 1, 0, 0, 0, 1, 1, |0, 1, 1, 1, 1, 1, 0, 1, 1, 0, |1, 1, 1, 1, 1, 0, 0, 0, 1, 1, |1, 0, 0, 1, 1, 1, 1, 1, 1, 1|];
TheoryticalMinCard = [0, 0, 0, 0, 0, 0, 0, 0, 0, 0, 0, 0, 0, 1, 0];
CoursesInstructorIds = [{1, 2, 3, 9, 10}, {1, 2, 3, 6, 8, 10}, {1, 2, 3, 4, 5, 6, 10}];
RolesDemands = [2, 1];
RolesContinuity = [];
ExamLen = [2, 2, 2, 2, 2, 2, 2, 2, 2, 2, 2, 2, 2, 2, 2];
LunchTsMinLen = 1;
LunchStarts = [5..6, 15..16];
SupervisorAvailable = 5;
OptimalLunchLenght = [2, 1];
OptimalStartTs = [1, 2];
OptimalFinishTs = [1, 9];
MinimizeRooms = 300;
RolesSoftContinuity = [|1, 2|2, 1|];
SameDegreeInRoom = 10;
Mergeability = 2;
